c Reduced graph for david_2 generated by Cyril Grelier
p edge 60 333
e 1 2
e 1 3
e 1 4
e 1 5
e 1 6
e 1 7
e 1 8
e 1 9
e 1 10
e 1 11
e 1 12
e 1 13
e 1 14
e 1 15
e 1 16
e 1 17
e 1 18
e 1 19
e 1 20
e 1 21
e 1 22
e 1 23
e 1 24
e 1 25
e 1 26
e 1 27
e 1 28
e 1 29
e 1 30
e 1 31
e 1 32
e 1 33
e 1 34
e 1 35
e 1 36
e 1 37
e 1 38
e 1 39
e 1 40
e 1 41
e 1 42
e 1 43
e 1 44
e 1 45
e 1 48
e 1 49
e 1 50
e 1 51
e 1 54
e 1 55
e 1 56
e 1 57
e 1 58
e 1 59
e 1 60
e 2 3
e 2 4
e 2 5
e 2 6
e 2 7
e 2 8
e 2 11
e 2 13
e 2 14
e 2 15
e 2 16
e 2 17
e 2 18
e 2 19
e 2 23
e 2 24
e 2 26
e 2 28
e 2 29
e 2 30
e 2 31
e 2 32
e 2 33
e 2 34
e 2 36
e 2 38
e 2 39
e 2 40
e 2 43
e 2 44
e 2 46
e 2 47
e 2 52
e 2 53
e 3 4
e 3 5
e 3 6
e 3 7
e 3 8
e 3 10
e 3 11
e 3 12
e 3 14
e 3 15
e 3 16
e 3 17
e 3 18
e 3 19
e 3 23
e 3 24
e 3 25
e 3 28
e 3 29
e 3 30
e 3 31
e 3 32
e 3 33
e 3 36
e 3 37
e 3 38
e 3 39
e 3 41
e 4 5
e 4 6
e 4 7
e 4 8
e 4 11
e 4 12
e 4 14
e 4 15
e 4 16
e 4 17
e 4 18
e 4 19
e 4 20
e 4 23
e 4 24
e 4 25
e 4 27
e 4 35
e 4 36
e 4 37
e 4 38
e 4 39
e 4 42
e 5 6
e 5 8
e 5 9
e 5 10
e 5 11
e 5 12
e 5 13
e 5 14
e 5 15
e 5 16
e 5 17
e 5 18
e 5 20
e 5 22
e 5 24
e 5 27
e 5 35
e 5 38
e 5 39
e 6 7
e 6 8
e 6 9
e 6 10
e 6 11
e 6 14
e 6 15
e 6 17
e 6 21
e 6 22
e 6 24
e 6 26
e 6 36
e 6 49
e 6 56
e 7 17
e 7 19
e 7 25
e 7 26
e 7 28
e 7 29
e 7 30
e 7 31
e 7 32
e 7 33
e 7 34
e 7 36
e 7 41
e 8 9
e 8 10
e 8 11
e 8 13
e 8 14
e 8 15
e 8 21
e 8 22
e 8 24
e 8 35
e 8 51
e 9 10
e 9 11
e 9 13
e 9 14
e 9 15
e 9 20
e 9 21
e 9 22
e 9 35
e 9 42
e 9 48
e 9 50
e 10 11
e 10 13
e 10 14
e 10 15
e 10 21
e 10 22
e 10 26
e 10 35
e 10 51
e 11 14
e 11 15
e 11 21
e 11 22
e 11 24
e 11 26
e 12 17
e 12 18
e 12 19
e 12 20
e 12 23
e 12 25
e 12 27
e 12 37
e 12 42
e 12 49
e 13 26
e 13 34
e 13 35
e 13 40
e 13 44
e 13 51
e 13 57
e 13 58
e 14 15
e 14 21
e 14 22
e 14 24
e 15 21
e 15 22
e 15 24
e 16 18
e 16 19
e 16 23
e 16 38
e 16 39
e 16 46
e 16 47
e 16 52
e 16 53
e 17 19
e 17 20
e 17 23
e 17 36
e 17 37
e 18 27
e 18 38
e 18 39
e 18 45
e 18 54
e 18 55
e 19 23
e 19 25
e 19 37
e 19 41
e 20 27
e 20 42
e 20 48
e 20 49
e 20 50
e 21 22
e 21 40
e 21 44
e 22 35
e 23 25
e 23 37
e 23 41
e 25 36
e 25 37
e 25 41
e 26 34
e 26 51
e 27 45
e 27 54
e 27 55
e 28 29
e 28 30
e 28 31
e 28 32
e 28 33
e 29 30
e 29 31
e 29 32
e 29 33
e 30 31
e 30 32
e 30 33
e 31 32
e 31 33
e 32 33
e 34 40
e 34 43
e 34 44
e 38 39
e 40 43
e 40 44
e 41 45
e 42 48
e 42 50
e 43 46
e 43 47
e 45 54
e 45 55
e 46 47
e 46 52
e 46 53
e 47 52
e 47 53
e 48 50
e 49 56
e 52 53
e 54 55
e 57 58
e 59 60
